! Title: Poli Filter Rules - Advanced Block List
! Version: 1.0.2
! Author: poli0981 (with Grok's help)
! Generated: 2026-01-05 18:50
! Homepage: https://github.com/poli0981/Poli-Filter-Rules
! Expires: 3 days
! Description: Advanced Block
! Total Rules: 549 (non-comment only)
! Mode: Pure rules (comments skipped)

$removeparam-utm_content
$removeparam=a
$removeparam=action
$removeparam=ad
$removeparam=ad_campaign
$removeparam=ad_id
$removeparam=ad_id
$removeparam=ad_name
$removeparam=ad_sub
$removeparam=adblk
$removeparam=adblock
$removeparam=adcampaign
$removeparam=ads
$removeparam=adset
$removeparam=adset_id
$removeparam=adset_name
$removeparam=adType
$removeparam=adv
$removeparam=advertising
$removeparam=adzone
$removeparam=adZones
$removeparam=af_ad
$removeparam=af_ad_id
$removeparam=af_adset
$removeparam=af_adset_id
$removeparam=af_c_id
$removeparam=af_channel
$removeparam=af_id
$removeparam=af_siteid
$removeparam=af_xp
$removeparam=aff_id
$removeparam=aff_name
$removeparam=aff_sub
$removeparam=AffCampaign
$removeparam=affid
$removeparam=affiliate
$removeparam=affiliate_campaign
$removeparam=affiliate_id
$removeparam=affiliate_name
$removeparam=AffReferrer
$removeparam=afsrc
$removeparam=atc
$removeparam=ats
$removeparam=campaign_id
$removeparam=campaign_name
$removeparam=cid
$removeparam=city
$removeparam=click
$removeparam=clickid
$removeparam=clickTag
$removeparam=cmpid
$removeparam=dpid
$removeparam=dscl
$removeparam=fbclid
$removeparam=fbPixelId
$removeparam=fpr
$removeparam=geo
$removeparam=inviteCode
$removeparam=invitee
$removeparam=irgwc
$removeparam=link_data
$removeparam=linkId
$removeparam=mode
$removeparam=mtm_campaign
$removeparam=mtm_content
$removeparam=mtm_id
$removeparam=mtm_medium
$removeparam=mtm_source
$removeparam=mtm_term
$removeparam=nats
$removeparam=offer
$removeparam=partner_id
$removeparam=promo
$removeparam=promo_code
$removeparam=promo_id
$removeparam=promocode
$removeparam=promotion
$removeparam=psid
$removeparam=rand
$removeparam=rcref
$removeparam=ref
$removeparam=referer
$removeparam=referer_domain
$removeparam=referral
$removeparam=referrer
$removeparam=refid
$removeparam=refsite
$removeparam=site
$removeparam=site_source
$removeparam=site_source_name
$removeparam=sourceId
$removeparam=srcref
$removeparam=stan
$removeparam=tenantId
$removeparam=track
$removeparam=tracker
$removeparam=trackerid
$removeparam=trackid
$removeparam=tracking
$removeparam=tracking_code
$removeparam=trackingId
$removeparam=utm_campaign
$removeparam=utm_id
$removeparam=utm_medium
$removeparam=utm_source
$removeparam=utm_term
$removeparam=via
$removeparam=wpam_id
$removeparam=wreferrer
$removeparam=zoneid
*$domain=~x.com,removeparam=eucx
*$domain=~x.com,removeparam=pb
*$domain=~x.com,removeparam=pbc
*$domain=~x.com,removeparam=pbi
*$domain=~x.com,removeparam=pbu
*$domain=~x.com,removeparam=psp
*$domain=~x.com,removeparam=var
*$domain=~x.com,removeparam=z
:/*nova88*.$document
://*.bet$document
://*.porn$document
://*.xxx$document
://*18kami*.$document
://*18videoz*.$document
://*34rule*.$document
://*3movs*.$document
://*4k.com$document
://*66vip*.$document
://*66win*.$document
://*68dg*.$document
://*68jl*.$document
://*69games*.$document
://*77hs*.$document
://*78win*.$document
://*8k88*.$document
://*8muses*.$document
://*aagmaal*.$document
://*aalive*.$document
://*abcvip*.$document
://*adameve*.$document
://*adult*.$document
://*aebn*.$document
://*agentredgirl*.$document
://*aiallure*.$document
://*aki-h*.$document
://*akuma*.$document
://*alljapanesepass*.$document
://*auntmia*.$document
://*azgal*.$document
://*babepedia*.$document
://*badoinkvr*.$document
://*balleyjay*.$document
://*bangbros*.$document
://*bangstars*.$document
://*bdsmstreak*.$document
://*bellesa*.$document
://*bemyhole*.$document
://*bet*.$document
://*bin88*.$document
://*bk8*.$document
://*blowjob*.$document
://*bong88*.$document
://*bong99*.$document
://*bongacams*.$document
://*bot88*.$document
://*boyfriendtv*.$document
://*brazillian-trans*.$document
://*brazzers*.$document
://*bu88*.$document
://*buomtv*.$document
://*camcap*.$document
://*camsfinder*.$document
://*camsoda*.$document
://*channelsantini*.$document
://*chich69*.$document
://*clip4sale*.$document
://*clubtug*.$document
://*cobet*.$document
://*comicsarmy*.$document
://*comicsvalley*.$document
://*comix*.$document
://*cumlouder*.$document
://*czech*.$document
://*czechvr*.$document
://*da88*.$document
://*de88*.$document
://*deepfake*.$document
://*deppibooru*.$document
://*df999*.$document
://*digitalplayground*.$document
://*dom88*.$document
://*dorcelclub*.$document
://*dorcelvision*.$document
://*doujin*.$document
://*doujinblog*.$document
://*elegantangel*.$document
://*erofus*.$document
://*erogames*.$document
://*eroge*.$document
://*eroplay*.$document
://*erotic*.$document
://*escort*.$document
://*f168*.$document
://*fapgames*.$document
://*faphouse*.$document
://*fappen*.$document
://*fapster*.$document
://*fapvid*.$document
://*femdom*.$document
://*fetish*.$document
://*five88*.$document
://*flingster*.$document
://*flirt4free*.$document
://*freecomics*.$document
://*freeones*.$document
://*fsicomics*.$document
://*ftmplus*.$document
://*fuck*.$document
://*fun88*.$document
://*fuq*.$document
://*furry*.$document
://*futa3dx*.$document
://*futasentaisquad*.$document
://*gamcore*.$document
://*gamesofdesire*.$document
://*gangbang*.$document
://*gelbooru*.$document
://*gemwin*.$document
://*gioitinhtre*.$document
://*girlway*.$document
://*gk88*.$document
://*god55*.$document
://*goldencomic*.$document
://*groobygirls*.$document
://*h-anime*.$document
://*h-suki*.$document
://*h3ntai*.$document
://*handjobhub*.$document
://*hanime*.$document
://*hdbet*.$document
://*hemdomblog*.$document
://*hentai*.$document
://*hgame*.$document
://*highnobiety*.$document
://*highreply*.$document
://*hitclub*.$document
://*hitomi*.$document
://*homemadegalore*.$document
://*honeytrans*.$document
://*hong88*.$document
://*horny*.$document
://*hotmovies*.$document
://*hotts*.$document
://*hungangels*.$document
://*iamsissy*.$document
://*ichatonline*.$document
://*imagefap*.$document
://*imlive*.$document
://*incognitymous*.$document
://*inkbunny*.$document
://*iqdb*.$document
://*iwank*.$document
://*j88*.$document
://*jerkmate*.$document
://*jimmyjane*.$document
://*jjgirls*.$document
://*joylovedolls*.$document
://*jun88*.$document
://*justustrannies*.$document
://*kclub*.$document
://*keekass*.$document
://*kerahoki*.$document
://*kh78*.$document
://*kh88*.$document
://*kinktrans*.$document
://*kissjav*.$document
://*km88*.$document
://*kon88*.$document
://*kong88*.$document
://*kupid*.$document
://*lacomics*.$document
://*ladyboy*.$document
://*lbgasm*.$document
://*lelo*.$document
://*lesbian*.$document
://*lewdspot*.$document
://*lewdua*.$document
://*lifeselector*.$document
://*livejasmin*.$document
://*liveprivates*.$document
://*lode88*.$document
://*lovehoney*.$document
://*lu88*.$document
://*lucky88*.$document
://*luscious*.$document
://*lushstories*.$document
://*lusychat*.$document
://*maha168*.$document
://*man88*.$document
://*manclub*.$document
://*manga18*.$document
://*manhwasusu*.$document
://*mansurfer*.$document
://*max88*.$document
://*mb88*.$document
://*mi88*.$document
://*milftoon*.$document
://*mitaku*.$document
://*moekyun.co*.$document
://*mofos*.$document
://*motherless*.$document
://*mult34*.$document
://*nakednews*.$document
://*nataliesmars*.$document
://*naughtyamerica*.$document
://*nekopoi*.$document
://*new88*.$document
://*newsensations*.$document
://*nextdoor*.$document
://*nh88*.$document
://*nice88*.$document
://*nohu*.$document
://*noodlemagazine*.$document
://*novelcrow*.$document
://*nsfw*.$document
://*nubiles*.$document
://*nude*.$document
://*nudity*.$document
://*nutaku*.$document
://*nxt-comics*.$document
://*oglaf*.$document
://*okfun*.$document
://*okvip*.$document
://*one88*.$document
://*onebox63*.$document
://*onlyfan*.$document
://*oopsie*.$document
://*oppai*.$document
://*pg66*.$document
://*ph688*.$document
://*phevl*.$document
://*phim18moi*.$document
://*pichunter*.$document
://*pictoa*.$document
://*pinkcherry*.$document
://*porcore*.$document
://*porn*.$document
://*porzo*.$document
://*pub88*.$document
://*pururin*.$document
://*pussy*.$document
://*qq88*.$document
://*r-34*.$document
://*r34*.$document
://*rabbitscams*.$document
://*rawrides*.$document
://*rc-88*.$document
://*rc88*.$document
://*reallykings*.$document
://*ricwin*.$document
://*rizk*.$document
://*rolletto*.$document
://*romcomics*.$document
://*ru34*.$document
://*rule34*.$document
://*s88*.$document
://*savitahd*.$document
://*say88*.$document
://*sb88*.$document
://*scroller*.$document
://*sex*.$document
://*sextop1*.$document
://*sfmcompile*.$document
://*shadbase*.$document
://*sheanimale*.$document
://*shemale*.$document
://*shennana*.$document
://*sheshaft*.$document
://*sieudam*.$document
://*slushe*.$document
://*slutroulette*.$document
://*smutbase*.$document
://*spankbang*.$document
://*spicychat*.$document
://*stasyq*.$document
://*stone27*.$document
://*stripchat*.$document
://*stripchatvr*.$document
://*sut88*.$document
://*svscomics*.$document
://*ta88*.$document
://*tacamateurs*.$document
://*tangas3d*.$document
://*tastyblacks*.$document
://*teamskeet*.$document
://*teenmegaworld*.$document
://*tgirl*.$document
://*the-joi-database*.$document
://*thempho*.$document
://*thisvid*.$document
://*thumbzilla*.$document
://*tiava*.$document
://*tip88*.$document
://*tk88*.$document
://*tonicmovies*.$document
://*top88*.$document
://*tranny*.$document
://*transbella*.$document
://*transfixed*.$document
://*transgasm*.$document
://*transharder*.$document
://*transqueens*.$document
://*transroommates*.$document
://*transsensual*.$document
://*transtaboo*.$document
://*transvr*.$document
://*tranzvr*.$document
://*tsdates*.$document
://*tsfilipina*.$document
://*tsforum*.$document
://*tslive*.$document
://*tsmatch*.$document
://*tsmate*.$document
://*tspov*.$document
://*tsraw*.$document
://*tsumino*.$document
://*tsvirtuallovers*.$document
://*tt88*.$document
://*tube*.$document,domain=~youtube.com|~m.youtube.com|~www.youtube.com|~tubebuddy.com|~www.tubebuddy.com
://*twistys*.$document
://*u18chan*.$document
://*uk88*.$document
://*undress*.$document
://*uu88*.$document
://*vb88*.$document
://*venus-lux*.$document
://*viewgals*.$document
://*vip6*.$document
://*vip7*.$document
://*vipwank*.$document
://*virtualrealtrans*.$document
://*vivu88*.$document
://*vm88*.$document
://*vmax*.$document
://*vn88*.$document
://*vrbangers*.$document
://*vrbtrans*.$document
://*vrsmash*.$document
://*vrsumo*.$document
://*vua99*.$document
://*wankzvr*.$document
://*wi88^.$document
://*williamhill*.$document
://*win66*.$document
://*win79*.$document
://*ww88*.$document
://*xanimu*.$document
://*xbabe*.$document
://*xcafe*.$document
://*xcomics*.$document
://*xforum*.$document
://*xgroovy*.$document
://*xhamster*.$document
://*xi88*.$document
://*xlecx*.$document
://*xlovecam*.$document
://*xneon*.$document
://*xnxx*.$document
://*xoso6*.$document
://*xvideos*.$document
://*xxx*.$document
://*xyzcomics*.$document
://*yescam*.$document
://*yiffer*.$document
://*youjizz*.$document
://*youx*.$document
://*zettahq*.$document
://*zx88*.$document
://*zzcartoon*.$document
://123goal*.$document
://bl555*.$document
://bom88*.$document
://chongtoico*.$document
://cm88*.$document
://createai*.com$document
://e688*.$document
://ff777*.$document
://fo88*.$document
://goal123*.$document
://joy68*.$document
://kh68*.$document
://kh78*.$document
://kingkong*.$document
://koin688*.$document
://lk68*.$document
://mb66*.$document
://nc88*.$document
://ok8386*.$document
://ph678*.$document
://quatvn.*$document
://sieukhung.$document
://tot88*.$document
://transangels*.$document
://uk88*.$document
://vlxx.$document
||*adnxs.com^$all
||*doubleclick.net^$all
||88.com^$all
||ae.org^$all
||amcdn.vn$removeparam=/^lsn|^url|^rd|^ui/
||axjndvucr.com$removeparam
||br.com^$all
||bv399.com/en$subdocument
||cafef.vn$removeparam=/^lsn|^url|^rd|^ui/
||cn.com^$all
||co.com^$all
||co.tz^$all
||co.uk^$all
||co.zm^$all
||com.co^$all
||de.com^$all
||dk.b8vip.art$removeparam
||eu.com^$all
||gb.net^$all
||gr.com^$all
||in.net^$all
||it.com^$all
||je4grv.com^$all
||jp.net^$all
||jpn.com^$all
||lesbify.com$removeparam=async
||localinfo.jp^$all
||md5sb4.com^$all
||org.mx^$all
||populartooth.com$removeparam
||ru.com^$all
||sa.com^$all
||sv368.cm^$all
||uk.com^$all
||uk.net^$all
||us.com^$all
||us.org^$all
||vn.vip^$all
||weebly.com^$all
||whskxk1.com^$all
||www.google.com*^$removeparam=gs_lcrp
||www.google.com*^$removeparam=oq
||www.google.com*^$removeparam=sourceid
||za.com^$all
